WARNING: for repeatability, setting FPU to use double precision
============================[ Problem Statistics ]=============================
|                                                                             |
|  Number of variables:            50                                         |
|  Number of clauses:             218                                         |
|  Parse time:                   0.00 s                                       |
|                                                                             |
============================[ Search Statistics ]==============================
| Conflicts |          ORIGINAL         |          LEARNT          | Progress |
|           |    Vars  Clauses Literals |    Limit  Clauses Lit/Cl |          |
===============================================================================
===============================================================================
restarts              : 1
conflicts             : 64             (41397 /sec)
decisions             : 70             (0.00 % random) (45278 /sec)
propagations          : 958            (619664 /sec)
conflict literals     : 240            (19.46 % deleted)
Memory used           : 20.00 MB
CPU time              : 0.001546 s

UNSATISFIABLE
